NAME : portcgen-15-60
COMMENT : portcgen N=15, seed=60
TYPE : TSP
DIMENSION : 15
EDGE_WEIGHT_TYPE : EUC_2D
NODE_COORD_SECTION
1 85 79
2 69 77
3 70 82
4 97 98
5 83 92
6 83 76
7 81 63
8 74 76
9 61 105
10 83 60
11 101 68
12 105 107
13 60 64
14 65 97
15 101 71
